
(set-option :produce-models true)
(set-option :inline-size-limit 10000)

(declare-const var0 String)

(push 1)
(assert (str.in.re var0 (re.* (re.range "\x01" "\xff"))))
(assert (str.in.re var0 (re.++ (re.++ re.begin-anchor ((_ re.capture 1) (re.union (re.++ (str.to.re "G") (re.++ (str.to.re "I") (re.++ (str.to.re "R") (re.++ ((_ re.loop 0 1) (re.union (str.to.re " ") (re.union (str.to.re "\u{0b}") (re.union (str.to.re "\u{0a}") (re.union (str.to.re "\u{0d}") (re.union (str.to.re "\u{09}") (str.to.re "\u{0c}"))))))) (re.++ (str.to.re "0") (re.++ (str.to.re "A") (str.to.re "A"))))))) (re.++ (re.union (re.range "A" "P") (re.union (re.range "R" "U") (re.union (str.to.re "W") (re.union (str.to.re "Y") (str.to.re "Z"))))) (re.++ ((_ re.capture 2) (re.union (re.union ((_ re.loop 1 2) (re.range "0" "9")) ((_ re.capture 3) (re.union (re.++ (re.union (re.range "A" "H") (re.range "K" "Y")) (re.range "0" "9")) (re.++ (re.union (re.range "A" "H") (re.range "K" "Y")) (re.++ (re.range "0" "9") ((_ re.capture 4) (re.union (re.range "0" "9") (re.union (str.to.re "A") (re.union (str.to.re "B") (re.union (str.to.re "E") (re.union (str.to.re "H") (re.union (str.to.re "M") (re.union (str.to.re "N") (re.union (str.to.re "P") (re.union (str.to.re "R") (re.range "V" "Y")))))))))))))))) (re.++ (re.range "0" "9") (re.union (re.range "A" "H") (re.union (str.to.re "J") (re.union (str.to.re "K") (re.union (re.range "S" "U") (str.to.re "W")))))))) (re.++ ((_ re.loop 0 1) (re.union (str.to.re " ") (re.union (str.to.re "\u{0b}") (re.union (str.to.re "\u{0a}") (re.union (str.to.re "\u{0d}") (re.union (str.to.re "\u{09}") (str.to.re "\u{0c}"))))))) (re.++ (re.range "0" "9") ((_ re.loop 0 2) (re.union (str.to.re "A") (re.union (str.to.re "B") (re.union (re.range "D" "H") (re.union (str.to.re "J") (re.union (str.to.re "L") (re.union (str.to.re "N") (re.union (re.range "P" "U") (re.range "W" "Z")))))))))))))))) re.end-anchor)))	; match!==null
(assert (not (str.in.re ((_ str.extract 1) var0 (re.++ (re.++ re.begin-anchor ((_ re.capture 1) (re.union (re.++ (str.to.re "G") (re.++ (str.to.re "I") (re.++ (str.to.re "R") (re.++ ((_ re.loop 0 1) (re.union (str.to.re " ") (re.union (str.to.re "\u{0b}") (re.union (str.to.re "\u{0a}") (re.union (str.to.re "\u{0d}") (re.union (str.to.re "\u{09}") (str.to.re "\u{0c}"))))))) (re.++ (str.to.re "0") (re.++ (str.to.re "A") (str.to.re "A"))))))) (re.++ (re.union (re.range "A" "P") (re.union (re.range "R" "U") (re.union (str.to.re "W") (re.union (str.to.re "Y") (str.to.re "Z"))))) (re.++ ((_ re.capture 2) (re.union (re.union ((_ re.loop 1 2) (re.range "0" "9")) ((_ re.capture 3) (re.union (re.++ (re.union (re.range "A" "H") (re.range "K" "Y")) (re.range "0" "9")) (re.++ (re.union (re.range "A" "H") (re.range "K" "Y")) (re.++ (re.range "0" "9") ((_ re.capture 4) (re.union (re.range "0" "9") (re.union (str.to.re "A") (re.union (str.to.re "B") (re.union (str.to.re "E") (re.union (str.to.re "H") (re.union (str.to.re "M") (re.union (str.to.re "N") (re.union (str.to.re "P") (re.union (str.to.re "R") (re.range "V" "Y")))))))))))))))) (re.++ (re.range "0" "9") (re.union (re.range "A" "H") (re.union (str.to.re "J") (re.union (str.to.re "K") (re.union (re.range "S" "U") (str.to.re "W")))))))) (re.++ ((_ re.loop 0 1) (re.union (str.to.re " ") (re.union (str.to.re "\u{0b}") (re.union (str.to.re "\u{0a}") (re.union (str.to.re "\u{0d}") (re.union (str.to.re "\u{09}") (str.to.re "\u{0c}"))))))) (re.++ (re.range "0" "9") ((_ re.loop 0 2) (re.union (str.to.re "A") (re.union (str.to.re "B") (re.union (re.range "D" "H") (re.union (str.to.re "J") (re.union (str.to.re "L") (re.union (str.to.re "N") (re.union (re.range "P" "U") (re.range "W" "Z")))))))))))))))) re.end-anchor)) (str.to.re "\x00"))))
;match[1]!==null
(assert (str.in.re ((_ str.extract 1) var0 (re.++ (re.++ re.begin-anchor ((_ re.capture 1) (re.union (re.++ (str.to.re "G") (re.++ (str.to.re "I") (re.++ (str.to.re "R") (re.++ ((_ re.loop 0 1) (re.union (str.to.re " ") (re.union (str.to.re "\u{0b}") (re.union (str.to.re "\u{0a}") (re.union (str.to.re "\u{0d}") (re.union (str.to.re "\u{09}") (str.to.re "\u{0c}"))))))) (re.++ (str.to.re "0") (re.++ (str.to.re "A") (str.to.re "A"))))))) (re.++ (re.union (re.range "A" "P") (re.union (re.range "R" "U") (re.union (str.to.re "W") (re.union (str.to.re "Y") (str.to.re "Z"))))) (re.++ ((_ re.capture 2) (re.union (re.union ((_ re.loop 1 2) (re.range "0" "9")) ((_ re.capture 3) (re.union (re.++ (re.union (re.range "A" "H") (re.range "K" "Y")) (re.range "0" "9")) (re.++ (re.union (re.range "A" "H") (re.range "K" "Y")) (re.++ (re.range "0" "9") ((_ re.capture 4) (re.union (re.range "0" "9") (re.union (str.to.re "A") (re.union (str.to.re "B") (re.union (str.to.re "E") (re.union (str.to.re "H") (re.union (str.to.re "M") (re.union (str.to.re "N") (re.union (str.to.re "P") (re.union (str.to.re "R") (re.range "V" "Y")))))))))))))))) (re.++ (re.range "0" "9") (re.union (re.range "A" "H") (re.union (str.to.re "J") (re.union (str.to.re "K") (re.union (re.range "S" "U") (str.to.re "W")))))))) (re.++ ((_ re.loop 0 1) (re.union (str.to.re " ") (re.union (str.to.re "\u{0b}") (re.union (str.to.re "\u{0a}") (re.union (str.to.re "\u{0d}") (re.union (str.to.re "\u{09}") (str.to.re "\u{0c}"))))))) (re.++ (re.range "0" "9") ((_ re.loop 0 2) (re.union (str.to.re "A") (re.union (str.to.re "B") (re.union (re.range "D" "H") (re.union (str.to.re "J") (re.union (str.to.re "L") (re.union (str.to.re "N") (re.union (re.range "P" "U") (re.range "W" "Z")))))))))))))))) re.end-anchor)) (re.++ re.all(re.+ (re.range "a" "z")) re.all) ))
;/[a-z]+/.test(match[1]) == true
(check-sat)
(get-model)
(pop 1)
(push 1)
(assert (str.in.re var0 (re.* (re.range "\x01" "\xff"))))
(assert (str.in.re var0 (re.++ (re.++ re.begin-anchor ((_ re.capture 1) (re.union (re.++ (str.to.re "G") (re.++ (str.to.re "I") (re.++ (str.to.re "R") (re.++ ((_ re.loop 0 1) (re.union (str.to.re " ") (re.union (str.to.re "\u{0b}") (re.union (str.to.re "\u{0a}") (re.union (str.to.re "\u{0d}") (re.union (str.to.re "\u{09}") (str.to.re "\u{0c}"))))))) (re.++ (str.to.re "0") (re.++ (str.to.re "A") (str.to.re "A"))))))) (re.++ (re.union (re.range "A" "P") (re.union (re.range "R" "U") (re.union (str.to.re "W") (re.union (str.to.re "Y") (str.to.re "Z"))))) (re.++ ((_ re.capture 2) (re.union (re.union ((_ re.loop 1 2) (re.range "0" "9")) ((_ re.capture 3) (re.union (re.++ (re.union (re.range "A" "H") (re.range "K" "Y")) (re.range "0" "9")) (re.++ (re.union (re.range "A" "H") (re.range "K" "Y")) (re.++ (re.range "0" "9") ((_ re.capture 4) (re.union (re.range "0" "9") (re.union (str.to.re "A") (re.union (str.to.re "B") (re.union (str.to.re "E") (re.union (str.to.re "H") (re.union (str.to.re "M") (re.union (str.to.re "N") (re.union (str.to.re "P") (re.union (str.to.re "R") (re.range "V" "Y")))))))))))))))) (re.++ (re.range "0" "9") (re.union (re.range "A" "H") (re.union (str.to.re "J") (re.union (str.to.re "K") (re.union (re.range "S" "U") (str.to.re "W")))))))) (re.++ ((_ re.loop 0 1) (re.union (str.to.re " ") (re.union (str.to.re "\u{0b}") (re.union (str.to.re "\u{0a}") (re.union (str.to.re "\u{0d}") (re.union (str.to.re "\u{09}") (str.to.re "\u{0c}"))))))) (re.++ (re.range "0" "9") ((_ re.loop 0 2) (re.union (str.to.re "A") (re.union (str.to.re "B") (re.union (re.range "D" "H") (re.union (str.to.re "J") (re.union (str.to.re "L") (re.union (str.to.re "N") (re.union (re.range "P" "U") (re.range "W" "Z")))))))))))))))) re.end-anchor)))	; match!==null
(assert (not (str.in.re ((_ str.extract 1) var0 (re.++ (re.++ re.begin-anchor ((_ re.capture 1) (re.union (re.++ (str.to.re "G") (re.++ (str.to.re "I") (re.++ (str.to.re "R") (re.++ ((_ re.loop 0 1) (re.union (str.to.re " ") (re.union (str.to.re "\u{0b}") (re.union (str.to.re "\u{0a}") (re.union (str.to.re "\u{0d}") (re.union (str.to.re "\u{09}") (str.to.re "\u{0c}"))))))) (re.++ (str.to.re "0") (re.++ (str.to.re "A") (str.to.re "A"))))))) (re.++ (re.union (re.range "A" "P") (re.union (re.range "R" "U") (re.union (str.to.re "W") (re.union (str.to.re "Y") (str.to.re "Z"))))) (re.++ ((_ re.capture 2) (re.union (re.union ((_ re.loop 1 2) (re.range "0" "9")) ((_ re.capture 3) (re.union (re.++ (re.union (re.range "A" "H") (re.range "K" "Y")) (re.range "0" "9")) (re.++ (re.union (re.range "A" "H") (re.range "K" "Y")) (re.++ (re.range "0" "9") ((_ re.capture 4) (re.union (re.range "0" "9") (re.union (str.to.re "A") (re.union (str.to.re "B") (re.union (str.to.re "E") (re.union (str.to.re "H") (re.union (str.to.re "M") (re.union (str.to.re "N") (re.union (str.to.re "P") (re.union (str.to.re "R") (re.range "V" "Y")))))))))))))))) (re.++ (re.range "0" "9") (re.union (re.range "A" "H") (re.union (str.to.re "J") (re.union (str.to.re "K") (re.union (re.range "S" "U") (str.to.re "W")))))))) (re.++ ((_ re.loop 0 1) (re.union (str.to.re " ") (re.union (str.to.re "\u{0b}") (re.union (str.to.re "\u{0a}") (re.union (str.to.re "\u{0d}") (re.union (str.to.re "\u{09}") (str.to.re "\u{0c}"))))))) (re.++ (re.range "0" "9") ((_ re.loop 0 2) (re.union (str.to.re "A") (re.union (str.to.re "B") (re.union (re.range "D" "H") (re.union (str.to.re "J") (re.union (str.to.re "L") (re.union (str.to.re "N") (re.union (re.range "P" "U") (re.range "W" "Z")))))))))))))))) re.end-anchor)) (str.to.re "\x00"))))	
;match[1]!==null
(assert (not (str.in.re ((_ str.extract 1) var0 (re.++ (re.++ re.begin-anchor ((_ re.capture 1) (re.union (re.++ (str.to.re "G") (re.++ (str.to.re "I") (re.++ (str.to.re "R") (re.++ ((_ re.loop 0 1) (re.union (str.to.re " ") (re.union (str.to.re "\u{0b}") (re.union (str.to.re "\u{0a}") (re.union (str.to.re "\u{0d}") (re.union (str.to.re "\u{09}") (str.to.re "\u{0c}"))))))) (re.++ (str.to.re "0") (re.++ (str.to.re "A") (str.to.re "A"))))))) (re.++ (re.union (re.range "A" "P") (re.union (re.range "R" "U") (re.union (str.to.re "W") (re.union (str.to.re "Y") (str.to.re "Z"))))) (re.++ ((_ re.capture 2) (re.union (re.union ((_ re.loop 1 2) (re.range "0" "9")) ((_ re.capture 3) (re.union (re.++ (re.union (re.range "A" "H") (re.range "K" "Y")) (re.range "0" "9")) (re.++ (re.union (re.range "A" "H") (re.range "K" "Y")) (re.++ (re.range "0" "9") ((_ re.capture 4) (re.union (re.range "0" "9") (re.union (str.to.re "A") (re.union (str.to.re "B") (re.union (str.to.re "E") (re.union (str.to.re "H") (re.union (str.to.re "M") (re.union (str.to.re "N") (re.union (str.to.re "P") (re.union (str.to.re "R") (re.range "V" "Y")))))))))))))))) (re.++ (re.range "0" "9") (re.union (re.range "A" "H") (re.union (str.to.re "J") (re.union (str.to.re "K") (re.union (re.range "S" "U") (str.to.re "W")))))))) (re.++ ((_ re.loop 0 1) (re.union (str.to.re " ") (re.union (str.to.re "\u{0b}") (re.union (str.to.re "\u{0a}") (re.union (str.to.re "\u{0d}") (re.union (str.to.re "\u{09}") (str.to.re "\u{0c}"))))))) (re.++ (re.range "0" "9") ((_ re.loop 0 2) (re.union (str.to.re "A") (re.union (str.to.re "B") (re.union (re.range "D" "H") (re.union (str.to.re "J") (re.union (str.to.re "L") (re.union (str.to.re "N") (re.union (re.range "P" "U") (re.range "W" "Z")))))))))))))))) re.end-anchor)) (re.++ re.all(re.+ (re.range "a" "z")) re.all) )))
;/[a-z]+/.test(match[1]) == false	
(check-sat)
(get-model)
(pop 1)
(push 1)
(assert (str.in.re var0 (re.* (re.range "\x01" "\xff"))))
(assert (str.in.re var0 (re.++ (re.++ re.begin-anchor ((_ re.capture 1) (re.union (re.++ (str.to.re "G") (re.++ (str.to.re "I") (re.++ (str.to.re "R") (re.++ ((_ re.loop 0 1) (re.union (str.to.re " ") (re.union (str.to.re "\u{0b}") (re.union (str.to.re "\u{0a}") (re.union (str.to.re "\u{0d}") (re.union (str.to.re "\u{09}") (str.to.re "\u{0c}"))))))) (re.++ (str.to.re "0") (re.++ (str.to.re "A") (str.to.re "A"))))))) (re.++ (re.union (re.range "A" "P") (re.union (re.range "R" "U") (re.union (str.to.re "W") (re.union (str.to.re "Y") (str.to.re "Z"))))) (re.++ ((_ re.capture 2) (re.union (re.union ((_ re.loop 1 2) (re.range "0" "9")) ((_ re.capture 3) (re.union (re.++ (re.union (re.range "A" "H") (re.range "K" "Y")) (re.range "0" "9")) (re.++ (re.union (re.range "A" "H") (re.range "K" "Y")) (re.++ (re.range "0" "9") ((_ re.capture 4) (re.union (re.range "0" "9") (re.union (str.to.re "A") (re.union (str.to.re "B") (re.union (str.to.re "E") (re.union (str.to.re "H") (re.union (str.to.re "M") (re.union (str.to.re "N") (re.union (str.to.re "P") (re.union (str.to.re "R") (re.range "V" "Y")))))))))))))))) (re.++ (re.range "0" "9") (re.union (re.range "A" "H") (re.union (str.to.re "J") (re.union (str.to.re "K") (re.union (re.range "S" "U") (str.to.re "W")))))))) (re.++ ((_ re.loop 0 1) (re.union (str.to.re " ") (re.union (str.to.re "\u{0b}") (re.union (str.to.re "\u{0a}") (re.union (str.to.re "\u{0d}") (re.union (str.to.re "\u{09}") (str.to.re "\u{0c}"))))))) (re.++ (re.range "0" "9") ((_ re.loop 0 2) (re.union (str.to.re "A") (re.union (str.to.re "B") (re.union (re.range "D" "H") (re.union (str.to.re "J") (re.union (str.to.re "L") (re.union (str.to.re "N") (re.union (re.range "P" "U") (re.range "W" "Z")))))))))))))))) re.end-anchor)))	; match!==null
(assert (str.in.re ((_ str.extract 1) var0 (re.++ (re.++ re.begin-anchor ((_ re.capture 1) (re.union (re.++ (str.to.re "G") (re.++ (str.to.re "I") (re.++ (str.to.re "R") (re.++ ((_ re.loop 0 1) (re.union (str.to.re " ") (re.union (str.to.re "\u{0b}") (re.union (str.to.re "\u{0a}") (re.union (str.to.re "\u{0d}") (re.union (str.to.re "\u{09}") (str.to.re "\u{0c}"))))))) (re.++ (str.to.re "0") (re.++ (str.to.re "A") (str.to.re "A"))))))) (re.++ (re.union (re.range "A" "P") (re.union (re.range "R" "U") (re.union (str.to.re "W") (re.union (str.to.re "Y") (str.to.re "Z"))))) (re.++ ((_ re.capture 2) (re.union (re.union ((_ re.loop 1 2) (re.range "0" "9")) ((_ re.capture 3) (re.union (re.++ (re.union (re.range "A" "H") (re.range "K" "Y")) (re.range "0" "9")) (re.++ (re.union (re.range "A" "H") (re.range "K" "Y")) (re.++ (re.range "0" "9") ((_ re.capture 4) (re.union (re.range "0" "9") (re.union (str.to.re "A") (re.union (str.to.re "B") (re.union (str.to.re "E") (re.union (str.to.re "H") (re.union (str.to.re "M") (re.union (str.to.re "N") (re.union (str.to.re "P") (re.union (str.to.re "R") (re.range "V" "Y")))))))))))))))) (re.++ (re.range "0" "9") (re.union (re.range "A" "H") (re.union (str.to.re "J") (re.union (str.to.re "K") (re.union (re.range "S" "U") (str.to.re "W")))))))) (re.++ ((_ re.loop 0 1) (re.union (str.to.re " ") (re.union (str.to.re "\u{0b}") (re.union (str.to.re "\u{0a}") (re.union (str.to.re "\u{0d}") (re.union (str.to.re "\u{09}") (str.to.re "\u{0c}"))))))) (re.++ (re.range "0" "9") ((_ re.loop 0 2) (re.union (str.to.re "A") (re.union (str.to.re "B") (re.union (re.range "D" "H") (re.union (str.to.re "J") (re.union (str.to.re "L") (re.union (str.to.re "N") (re.union (re.range "P" "U") (re.range "W" "Z")))))))))))))))) re.end-anchor)) (str.to.re "\x00")))
;match[1]==null
(check-sat)
(get-model)
(pop 1)
(push 1)
(assert (str.in.re var0 (re.* (re.range "\x01" "\xff"))))
(assert (not (str.in.re var0 (re.++ (re.++ re.begin-anchor ((_ re.capture 1) (re.union (re.++ (str.to.re "G") (re.++ (str.to.re "I") (re.++ (str.to.re "R") (re.++ ((_ re.loop 0 1) (re.union (str.to.re " ") (re.union (str.to.re "\u{0b}") (re.union (str.to.re "\u{0a}") (re.union (str.to.re "\u{0d}") (re.union (str.to.re "\u{09}") (str.to.re "\u{0c}"))))))) (re.++ (str.to.re "0") (re.++ (str.to.re "A") (str.to.re "A"))))))) (re.++ (re.union (re.range "A" "P") (re.union (re.range "R" "U") (re.union (str.to.re "W") (re.union (str.to.re "Y") (str.to.re "Z"))))) (re.++ ((_ re.capture 2) (re.union (re.union ((_ re.loop 1 2) (re.range "0" "9")) ((_ re.capture 3) (re.union (re.++ (re.union (re.range "A" "H") (re.range "K" "Y")) (re.range "0" "9")) (re.++ (re.union (re.range "A" "H") (re.range "K" "Y")) (re.++ (re.range "0" "9") ((_ re.capture 4) (re.union (re.range "0" "9") (re.union (str.to.re "A") (re.union (str.to.re "B") (re.union (str.to.re "E") (re.union (str.to.re "H") (re.union (str.to.re "M") (re.union (str.to.re "N") (re.union (str.to.re "P") (re.union (str.to.re "R") (re.range "V" "Y")))))))))))))))) (re.++ (re.range "0" "9") (re.union (re.range "A" "H") (re.union (str.to.re "J") (re.union (str.to.re "K") (re.union (re.range "S" "U") (str.to.re "W")))))))) (re.++ ((_ re.loop 0 1) (re.union (str.to.re " ") (re.union (str.to.re "\u{0b}") (re.union (str.to.re "\u{0a}") (re.union (str.to.re "\u{0d}") (re.union (str.to.re "\u{09}") (str.to.re "\u{0c}"))))))) (re.++ (re.range "0" "9") ((_ re.loop 0 2) (re.union (str.to.re "A") (re.union (str.to.re "B") (re.union (re.range "D" "H") (re.union (str.to.re "J") (re.union (str.to.re "L") (re.union (str.to.re "N") (re.union (re.range "P" "U") (re.range "W" "Z")))))))))))))))) re.end-anchor))))	; match == null
(check-sat)
(get-model)
(pop 1)
(exit)
